JOBS = 1..3;
MACHINES = 1..3;
SPEED = 1;
time = array3d(JOBS,MACHINES,1..SPEED,[77,60,60,64,71,13,74,60,51]);
energy = array3d(JOBS,MACHINES,1..SPEED,[46,54,54,52,49,87,47,54,60]);
precedence = array2d(JOBS,MACHINES,[2,0,1,1,0,2,2,1,0]);
ME = 1;
TE = 123;
st_old = array2d(JOBS,MACHINES,[251,131,191,71,0,135,135,71,0]);
SpeedScaling = array2d(JOBS,MACHINES,[1,1,1,1,1,1,1,1,1]);
